p td 100 99
0 1
0 3
0 6
0 7
0 14
0 23
0 24
0 29
0 36
0 40
0 48
0 65
0 66
0 76
1 2
2 4
2 9
2 22
2 27
2 30
2 35
2 59
2 62
2 64
2 69
2 70
2 85
2 88
2 96
3 5
3 33
3 38
3 56
3 71
4 13
4 19
4 43
4 50
4 54
4 75
5 8
5 10
5 17
5 61
6 12
9 11
9 18
9 39
9 41
9 42
9 53
9 55
9 60
9 63
9 77
9 80
9 81
9 84
10 15
10 34
10 37
10 45
10 49
10 51
10 58
14 16
14 25
14 32
14 47
14 52
14 57
14 99
19 20
19 21
21 28
21 31
21 95
22 44
24 26
24 46
24 86
24 94
35 83
39 78
41 68
41 73
41 87
43 82
47 89
48 72
53 67
54 74
61 91
63 90
65 79
68 92
69 98
71 93
82 97
